NAME : pairopt
TYPE : ACVRP
DIMENSION : 6
EDGE_WEIGHT_TYPE : EXPLICIT
EDGE_WEIGHT_FORMAT : FULL_MATRIX
CAPACITY : 61
VEHICLES : 2
EDGE_WEIGHT_SECTION
100000 -100000 -100000 100000 100000 100000 
100000 100000 1000000 3522 3570 2206 
100000 1000000 100000 -185 505 3049 
0 0 0 100000 941 2970 
0 0 0 941 100000 3117 
0 0 0 2970 3117 100000 
DEMAND_SECTION
1 0
2 0
3 0
4 40
5 20
6 20
DEPOT_SECTION
1
EOF